
  32    4
  10   10   10   10

   0   0   0   0   0   3 2 4 6 
   9   1   1   1   0   2 11 3 
   3   7   4   9   0   3 10 9 5 
   2   0   4   4   1   2 9 5 
   8   4   7   4   0   2 31 7 
   9   4   3   0   3   2 31 7 
   1   3   6   4   0   3 20 15 8 
   9   1   3   6   0   3 19 17 12 
   8   0   2   2   3   6 31 30 22 19 17 16 
   1   6   5   4   0   4 20 19 18 14 
   5   0   5   4   2   3 30 17 14 
   7   4   5   4   0   1 13 
   3   2   3   0   4   3 30 26 14 
   7   5   0   4   4   2 28 16 
   6   6   4   6   0   3 27 22 21 
   5   0   1   3   4   3 29 27 21 
  10   0   8   5   3   2 28 18 
   1   4   5   0   4   3 26 25 23 
   6   0   3   4   1   1 21 
   2   5   1   0   3   3 30 26 24 
   4   3   3   0   8   2 25 23 
  10   3   5   2   0   2 26 24 
   2   6   1   4   0   1 24 
   7   6   0   5   4   1 32
   9   3   0   4   5   1 32
   2   0   8   3   5   1 32
   8   4   0   3   7   1 32
   2   5   0   4   5   1 32
   9   5   0   3   7   1 32
   2   4   4   0   3   1 32
   2   1   5   0   4   1 32
   0   0   0   0   0   0 
